32      4       
16      20      13      19      
0       0       0       0       0       1       2       
8       14      0       0       19      1       3       
9       0       12      5       0       1       4       
7       14      0       13      0       2       31      5       
3       0       0       9       8       2       30      6       
8       0       20      0       19      2       29      7       
5       13      0       13      0       1       8       
4       12      0       0       19      1       9       
6       0       11      0       14      1       10      
4       16      0       0       19      1       11      
5       12      0       0       11      1       12      
3       0       20      0       5       1       13      
2       12      0       8       0       1       14      
1       0       0       13      19      2       28      15      
7       0       3       0       19      2       27      16      
5       16      0       0       19      1       17      
7       0       20      3       0       2       26      18      
6       10      9       0       0       1       19      
9       0       14      7       0       1       20      
10      0       0       6       13      1       21      
3       5       0       0       5       1       22      
8       1       20      0       0       1       23      
7       11      0       10      0       1       24      
5       0       15      0       16      1       25      
5       16      20      0       0       1       32      
7       0       18      12      0       1       32      
8       0       17      13      0       1       32      
1       15      14      0       0       1       32      
5       13      0       13      0       1       32      
1       0       12      13      0       1       32      
1       0       0       8       9       1       32      
0       0       0       0       0       0       
